1 51 2
-422 -614 -309 -118 -951 -879 -323 -674 -836 -628 -332 -548 -680 -423 -131 -952 -561 -94 -499 -473 -979 -370 -30 -899 -544 -236 -774 -441 -533 -711 -446 -684 -578 -406 -308 -105 -119 -797 -583 -300 -36 -641 -735 -293 -312 -287 -585 -279 -201 -202 0 
-617 -451 -659 -808 -143 -27 -728 -229 -185 -371 -757 -355 -267 -658 -829 -132 -437 -965 -585 -553 -41 -577 -888 -85 -515 -826 -162 -540 -410 -201 -568 -261 -433 -690 -660 -907 -825 -114 -462 -706 -994 -357 -219 -750 -599 -751 -390 -643 -863 -788 0 
76 430 849 230 442 262 565 443 338 806 337 928 304 130 724 628 931 105 56 382 5 114 534 77 250 469 634 940 525 237 424 176 628 292 938 185 742 641 254 616 107 593 299 816 579 133 40 972 64 189 1 
10719 
